(declare-sort Loc 0)
(declare-const f6942_0_remove_FieldAccess Loc)
(declare-const f6947_0_remove_FieldAccess Loc)
(declare-const f477_0_createList_Load Loc)
(declare-const f850_0_createList_Load Loc)
(declare-const f1_0_main_Load Loc)
(declare-const f2336_0_random_ArrayAccess Loc)
(declare-const f500_0_createList_Return Loc)
(declare-const f3043_0__init__LE Loc)
(declare-const f3395_0__init__GE Loc)
(declare-const f3396_0__init__GE Loc)
(declare-const f3437_0__init__GE Loc)
(declare-const f3438_0__init__GE Loc)
(declare-const f6761_0_removeRange_GE Loc)
(declare-const f6913_0_remove_FieldAccess Loc)
(declare-const f6944_0_remove_FieldAccess Loc)
(declare-const f2250_0_createList_LE Loc)
(declare-const __init Loc)
(assert (distinct f6942_0_remove_FieldAccess f6947_0_remove_FieldAccess f477_0_createList_Load f850_0_createList_Load f1_0_main_Load f2336_0_random_ArrayAccess f500_0_createList_Return f3043_0__init__LE f3395_0__init__GE f3396_0__init__GE f3437_0__init__GE f3438_0__init__GE f6761_0_removeRange_GE f6913_0_remove_FieldAccess f6944_0_remove_FieldAccess f2250_0_createList_LE __init ))

(define-fun cfg_init ( (pc Loc) (src Loc) (rel Bool) ) Bool
  (and (= pc src) rel))

(define-fun cfg_trans2 ( (pc Loc) (src Loc)
                         (pc1 Loc) (dst Loc)
                         (rel Bool) ) Bool
  (and (= pc src) (= pc1 dst) rel))

(define-fun cfg_trans3 ( (pc Loc) (exit Loc)
                         (pc1 Loc) (call Loc)
                         (pc2 Loc) (return Loc)
                         (rel Bool) ) Bool
  (and (= pc exit) (= pc1 call) (= pc2 return) rel))

(define-fun init_main ( (pc Loc) (arg1 Int) (arg2 Int) (arg3 Int) (arg4 Int) (arg5 Int) (arg6 Int) (arg7 Int) (arg8 Int) (arg9 Int) (arg10 Int) (arg11 Int) (arg12 Int) (arg13 Int) (arg14 Int) (arg15 Int) (arg16 Int) (arg17 Int) (arg18 Int) (arg19 Int) (arg20 Int) (arg21 Int) (arg22 Int) (arg23 Int) (arg24 Int) (arg25 Int) (arg26 Int) (arg27 Int) (arg28 Int) ) Bool
  (cfg_init pc __init true))

(define-fun next_main (
                 (pc Loc) (arg1 Int) (arg2 Int) (arg3 Int) (arg4 Int) (arg5 Int) (arg6 Int) (arg7 Int) (arg8 Int) (arg9 Int) (arg10 Int) (arg11 Int) (arg12 Int) (arg13 Int) (arg14 Int) (arg15 Int) (arg16 Int) (arg17 Int) (arg18 Int) (arg19 Int) (arg20 Int) (arg21 Int) (arg22 Int) (arg23 Int) (arg24 Int) (arg25 Int) (arg26 Int) (arg27 Int) (arg28 Int)
                 (pc1 Loc) (arg1P Int) (arg2P Int) (arg3P Int) (arg4P Int) (arg5P Int) (arg6P Int) (arg7P Int) (arg8P Int) (arg9P Int) (arg10P Int) (arg11P Int) (arg12P Int) (arg13P Int) (arg14P Int) (arg15P Int) (arg16P Int) (arg17P Int) (arg18P Int) (arg19P Int) (arg20P Int) (arg21P Int) (arg22P Int) (arg23P Int) (arg24P Int) (arg25P Int) (arg26P Int) (arg27P Int) (arg28P Int)
             ) Bool
  (or
    (cfg_trans2 pc f6942_0_remove_FieldAccess pc1 f6947_0_remove_FieldAccess (and (and (and (and (and (and (and (and (and (and (and (and (and (and (and (and (and (and (and (and (and (and (and (and (and (and (and (and (and (and (and (and (and (and (and (and (and (and (and (and (and (and (and (and (and (and (and (and (and (and (and (and (and (and (and (<= arg3P arg3) (>= arg4 arg4P)) (>= arg5 arg5P)) (>= arg6 arg6P)) (>= arg7 arg7P)) (> arg3 7)) (> arg4 5)) (> arg5 4)) (> arg6 0)) (> arg7 2)) (> arg3P 7)) (> arg4P 5)) (> arg5P 4)) (> arg6P 0)) (> arg7P 2)) (<= (+ arg8 8) arg3)) (<= (+ arg15 7) arg3)) (<= (+ arg16 5) arg3)) (>= arg3 (+ arg9 2))) (<= (+ arg10P 4) arg3)) (>= arg3 (+ arg10 4))) (<= (+ arg12P 6) arg3)) (<= (+ arg13P 6) arg3)) (>= arg3 (+ arg11 6))) (>= arg3 (+ arg12 6))) (>= arg3 (+ arg13 4))) (>= arg4 (+ arg14 6))) (<= (+ arg15 5) arg4)) (<= (+ arg16 3) arg4)) (>= arg5 (+ arg20P 4))) (>= arg5 (+ arg21P 4))) (>= arg5 (+ arg17 4))) (>= arg5 (+ arg18 4))) (>= arg5 (+ arg19 2))) (>= arg6 (+ arg25P 2))) (>= arg6 (+ arg20 2))) (>= arg7 (+ arg21 4))) (>= arg7 (+ arg23 2))) (>= arg7 (+ arg22 2))) (= arg1 arg1P)) (= arg2 arg2P)) (= arg8 arg8P)) (= arg9 arg9P)) (= arg10 arg11P)) (= arg11 arg14P)) (= arg12 arg15P)) (= arg13 arg16P)) (= arg14 arg17P)) (= arg15 arg18P)) (= arg16 arg19P)) (= arg17 arg22P)) (= arg18 arg23P)) (= arg19 arg24P)) (= arg20 arg26P)) (= arg22 arg27P)) (= arg23 arg28P)))
    (cfg_trans2 pc f477_0_createList_Load pc1 f850_0_createList_Load (and (and (and (and (and (and (and (and (and (and (and (and (and (and (and (and (and (> arg2 9) (> arg2P 9)) (<= (+ arg7 3) arg2)) (<= (+ arg6 5) arg2)) (= arg1 arg1P)) (= 0 arg3P)) (= 0 arg4P)) (= arg4 arg5P)) (= arg6P arg7P)) (= 0 arg8P)) (= 0 arg9P)) (= 0 arg10P)) (= arg3 arg15P)) (= arg3 arg16P)) (= arg4 arg17P)) (= arg5 arg19P)) (= arg6 arg22P)) (= arg7 arg23P)))
    (cfg_trans2 pc f1_0_main_Load pc1 f2336_0_random_ArrayAccess (exists ((x60 Int)) (and (and (and (and (> x60 (- 1)) (> arg2 0)) (> arg1 0)) (> arg1P 6)) (= arg2 arg4P))))
    (cfg_trans2 pc f500_0_createList_Return pc1 f2336_0_random_ArrayAccess (and (and (and (and (and (and (and (and (and (and (> arg1 0) (> arg2 6)) (> arg1P 6)) (<= (+ arg6 7) arg2)) (<= (+ arg7 7) arg2)) (<= (+ arg9 3) arg2)) (<= (+ arg8 5) arg2)) (= arg3 arg2P)) (= arg4 arg3P)) (= arg8 arg7P)) (= arg9 arg8P)))
    (cfg_trans2 pc f2336_0_random_ArrayAccess pc1 f3043_0__init__LE (exists ((x75 Int) (x95 Int)) (and (and (and (and (and (and (and (and (and (and (and (and (and (and (and (and (and (and (and (and (and (and (> x75 (- 1)) (< (+ x75 1) arg4)) (> arg4P (- 1))) (> arg1P (- 1))) (<= x95 arg4P)) (<= arg4P arg7)) (> arg1 6)) (> arg2P 8)) (> arg3P 8)) (<= (+ arg5 7) arg1)) (<= (+ arg6 7) arg1)) (<= (+ arg8 3) arg1)) (<= (+ arg7 5) arg1)) (= arg3 arg5P)) (= arg2 arg6P)) (= arg3 arg7P)) (= arg3 arg8P)) (= arg3 arg9P)) (= arg7 arg12P)) (= arg7 arg13P)) (= arg7 arg18P)) (= arg7 arg19P)) (= arg8 arg20P))))
    (cfg_trans2 pc f3043_0__init__LE pc1 f3043_0__init__LE (exists ((x129 Int)) (and (and (and (and (and (and (and (and (and (and (and (and (and (and (and (and (and (and (and (and (and (and (and (and (and (and (and (and (and (and (and (and (and (and (and (and (and (and (and (and (and (and (> arg8 0) (> arg5 0)) (> arg9 0)) (> arg5P arg5)) (> arg7 arg5)) (> arg6 0)) (> arg7 0)) (< x129 arg9P)) (< arg8P arg8)) (> x129 (- 1))) (< x129 arg9)) (< x129 arg8P)) (> arg13 arg4)) (> arg13 0)) (> arg2 8)) (> arg3 8)) (> arg2P 8)) (> arg3P 8)) (>= arg2 (+ arg10 9))) (>= arg2 (+ arg11 9))) (>= arg2 (+ arg12 7))) (>= arg2 (+ arg20 5))) (<= (+ arg13 2) arg2)) (>= arg2 (+ arg14 4))) (>= arg2 (+ arg15 4))) (>= arg3 (+ arg16 9))) (>= arg3 (+ arg17 9))) (>= arg3 (+ arg12 7))) (>= arg3 (+ arg20 5))) (<= (+ arg13 2) arg3)) (>= arg3 (+ arg22 4))) (>= arg3 (+ arg21 4))) (= arg12 arg18)) (= arg13 arg19)) (= arg1 arg1P)) (= arg4 arg4P)) (= arg6 arg6P)) (= arg7 arg7P)) (= arg12 arg12P)) (= (- arg13 1) arg13P)) (= arg12 arg18P)) (= (- arg13 1) arg19P)) (= arg20 arg20P))))
    (cfg_trans2 pc f3043_0__init__LE pc1 f3043_0__init__LE (exists ((x160 Int)) (and (and (and (and (and (and (and (and (and (and (and (and (and (and (and (and (and (and (and (and (and (and (and (and (and (and (and (and (and (and (and (and (and (and (and (and (and (and (and (< x160 arg6) (> arg6 (- 1))) (< arg8P arg7)) (> arg7 (- 1))) (< arg4 arg13)) (> x160 0)) (> arg8P 0)) (> arg13 0)) (> arg2 8)) (> arg3 8)) (> arg2P 8)) (> arg3P 8)) (<= (+ arg10 9) arg2)) (<= (+ arg11 9) arg2)) (<= (+ arg12 7) arg2)) (<= (+ arg20 5) arg2)) (<= (+ arg13 2) arg2)) (<= (+ arg14 4) arg2)) (<= (+ arg15 4) arg2)) (<= (+ arg16 9) arg3)) (<= (+ arg17 9) arg3)) (<= (+ arg12 7) arg3)) (<= (+ arg20 5) arg3)) (<= (+ arg13 2) arg3)) (<= (+ arg22 4) arg3)) (<= (+ arg21 4) arg3)) (= arg7 arg9)) (= arg12 arg18)) (= arg13 arg19)) (= arg1 arg1P)) (= arg4 arg4P)) (= 1 arg5P)) (= 0 arg6P)) (= 0 arg7P)) (= 0 arg9P)) (= arg12 arg12P)) (= (- arg13 1) arg13P)) (= arg12 arg18P)) (= (- arg13 1) arg19P)) (= arg20 arg20P))))
    (cfg_trans2 pc f3043_0__init__LE pc1 f3043_0__init__LE (exists ((x191 Int) (x192 Int)) (and (and (and (and (and (and (and (and (and (and (and (and (and (and (and (and (and (and (and (and (and (and (and (and (and (and (and (and (and (and (and (and (and (and (and (and (and (and (< x191 arg6) (> arg6 (- 1))) (< x192 arg7)) (> arg7 (- 1))) (< arg4 arg13)) (> x191 0)) (> arg13 0)) (> arg2 8)) (> arg3 8)) (> arg2P 8)) (> arg3P 8)) (<= (+ arg10 9) arg2)) (<= (+ arg11 9) arg2)) (<= (+ arg12 7) arg2)) (<= (+ arg20 5) arg2)) (<= (+ arg13 2) arg2)) (<= (+ arg14 4) arg2)) (<= (+ arg15 4) arg2)) (<= (+ arg16 9) arg3)) (<= (+ arg17 9) arg3)) (<= (+ arg12 7) arg3)) (<= (+ arg20 5) arg3)) (<= (+ arg13 2) arg3)) (<= (+ arg22 4) arg3)) (<= (+ arg21 4) arg3)) (= arg7 arg9)) (= arg12 arg18)) (= arg13 arg19)) (= arg1 arg1P)) (= arg4 arg4P)) (= 1 arg5P)) (= 1 arg7P)) (= 1 arg8P)) (= 1 arg9P)) (= arg12 arg12P)) (= (- arg13 1) arg13P)) (= arg12 arg18P)) (= (- arg13 1) arg19P)) (= arg20 arg20P))))
    (cfg_trans2 pc f3043_0__init__LE pc1 f3043_0__init__LE (exists ((x224 Int)) (and (and (and (and (and (and (and (and (and (and (and (and (and (and (and (and (and (and (and (and (and (and (and (and (and (and (and (and (and (and (and (and (and (and (and (and (and (< x224 arg6) (> arg6 (- 1))) (< arg8P arg7)) (> arg7 (- 1))) (< arg4 arg13)) (> arg8P 0)) (> arg13 0)) (> arg2 8)) (> arg3 8)) (> arg2P 8)) (> arg3P 8)) (<= (+ arg10 9) arg2)) (<= (+ arg11 9) arg2)) (<= (+ arg12 7) arg2)) (<= (+ arg20 5) arg2)) (<= (+ arg13 2) arg2)) (<= (+ arg14 4) arg2)) (<= (+ arg15 4) arg2)) (<= (+ arg16 9) arg3)) (<= (+ arg17 9) arg3)) (<= (+ arg12 7) arg3)) (<= (+ arg20 5) arg3)) (<= (+ arg13 2) arg3)) (<= (+ arg22 4) arg3)) (<= (+ arg21 4) arg3)) (= arg7 arg9)) (= arg12 arg18)) (= arg13 arg19)) (= arg1 arg1P)) (= arg4 arg4P)) (= 1 arg5P)) (= 1 arg6P)) (= 0 arg9P)) (= arg12 arg12P)) (= (- arg13 1) arg13P)) (= arg12 arg18P)) (= (- arg13 1) arg19P)) (= arg20 arg20P))))
    (cfg_trans2 pc f3043_0__init__LE pc1 f3043_0__init__LE (exists ((x254 Int) (x255 Int)) (and (and (and (and (and (and (and (and (and (and (and (and (and (and (and (and (and (and (and (and (and (and (and (and (and (and (and (and (and (and (and (and (and (and (and (and (and (and (< x254 arg6) (> arg6 (- 1))) (< x255 arg7)) (> arg7 (- 1))) (< arg4 arg13)) (> arg13 0)) (> arg2 8)) (> arg3 8)) (> arg2P 8)) (> arg3P 8)) (<= (+ arg10 9) arg2)) (<= (+ arg11 9) arg2)) (<= (+ arg12 7) arg2)) (<= (+ arg20 5) arg2)) (<= (+ arg13 2) arg2)) (<= (+ arg14 4) arg2)) (<= (+ arg15 4) arg2)) (<= (+ arg16 9) arg3)) (<= (+ arg17 9) arg3)) (<= (+ arg12 7) arg3)) (<= (+ arg20 5) arg3)) (<= (+ arg13 2) arg3)) (<= (+ arg22 4) arg3)) (<= (+ arg21 4) arg3)) (= arg7 arg9)) (= arg12 arg18)) (= arg13 arg19)) (= arg1 arg1P)) (= arg4 arg4P)) (= 1 arg5P)) (= 1 arg6P)) (= 1 arg7P)) (= 1 arg8P)) (= 1 arg9P)) (= arg12 arg12P)) (= (- arg13 1) arg13P)) (= arg12 arg18P)) (= (- arg13 1) arg19P)) (= arg20 arg20P))))
    (cfg_trans2 pc f2336_0_random_ArrayAccess pc1 f3395_0__init__GE (exists ((x257 Int) (x270 Int) (x271 Int) (x272 Int)) (and (and (and (and (and (and (and (and (and (and (and (and (and (and (and (and (and (and (and (> x257 (- 1)) (< (+ x257 1) arg4)) (> arg3P (- 1))) (> arg1P (- 1))) (<= arg3P arg7)) (> x270 arg3P)) (> arg2 (- 1))) (< x271 arg2)) (< x272 arg3)) (> x272 0)) (> arg3 (- 1))) (> arg1 6)) (> arg2P 9)) (<= (+ arg5 7) arg1)) (<= (+ arg6 7) arg1)) (<= (+ arg8 3) arg1)) (<= (+ arg7 5) arg1)) (= arg7 arg5P)) (= 0 arg6P)) (= arg8 arg7P))))
    (cfg_trans2 pc f2336_0_random_ArrayAccess pc1 f3396_0__init__GE (exists ((x274 Int) (x285 Int) (x286 Int) (x287 Int)) (and (and (and (and (and (and (and (and (and (and (and (and (and (and (and (and (and (and (and (> x274 (- 1)) (< (+ x274 1) arg4)) (> arg3P (- 1))) (> arg1P (- 1))) (<= arg3P arg7)) (> x285 arg3P)) (> arg2 (- 1))) (< x286 arg2)) (> arg3 (- 1))) (< x287 arg3)) (<= (- arg2P 3) arg1)) (> arg1 6)) (> arg2P 9)) (<= (+ arg5 7) arg1)) (<= (+ arg6 7) arg1)) (<= (+ arg8 3) arg1)) (<= (+ arg7 5) arg1)) (= arg7 arg4P)) (= 0 arg5P)) (= arg8 arg6P))))
    (cfg_trans2 pc f2336_0_random_ArrayAccess pc1 f3437_0__init__GE (exists ((x289 Int) (x303 Int) (x304 Int)) (and (and (and (and (and (and (and (and (and (and (and (and (and (and (and (and (and (and (and (and (and (and (and (and (> x289 (- 1)) (< (+ x289 1) arg4)) (> arg3P (- 1))) (> arg1P (- 1))) (<= arg3P arg7)) (> x303 arg3P)) (> arg2 (- 1))) (< arg4P arg2)) (< x304 arg3)) (> arg3 (- 1))) (> x304 0)) (> arg4P 0)) (> arg1 6)) (> arg2P 9)) (<= (+ arg5 7) arg1)) (<= (+ arg6 7) arg1)) (<= (+ arg8 3) arg1)) (<= (+ arg7 5) arg1)) (= 0 arg5P)) (= 0 arg6P)) (= 0 arg7P)) (= arg4P arg8P)) (= arg7 arg10P)) (= 0 arg11P)) (= arg8 arg12P))))
    (cfg_trans2 pc f2336_0_random_ArrayAccess pc1 f3438_0__init__GE (exists ((x306 Int) (x318 Int) (x319 Int)) (and (and (and (and (and (and (and (and (and (and (and (and (and (and (and (and (and (and (and (and (and (and (and (> x306 (- 1)) (< (+ x306 1) arg4)) (> arg3P (- 1))) (> arg1P (- 1))) (<= arg3P arg7)) (> x318 arg3P)) (> arg2 (- 1))) (< arg4P arg2)) (< x319 arg3)) (> arg4P 0)) (> arg3 (- 1))) (> arg1 6)) (> arg2P 9)) (<= (+ arg5 7) arg1)) (<= (+ arg6 7) arg1)) (<= (+ arg8 3) arg1)) (<= (+ arg7 5) arg1)) (= 0 arg5P)) (= 0 arg6P)) (= 0 arg7P)) (= arg4P arg8P)) (= arg7 arg9P)) (= 0 arg10P)) (= arg8 arg11P))))
    (cfg_trans2 pc f3395_0__init__GE pc1 f3395_0__init__GE (and (and (and (and (and (and (and (and (and (and (and (and (and (and (and (and (> arg6 (- 1)) (> arg3 arg6)) (<= (- arg2P 1) arg2)) (> arg2 9)) (> arg2P 9)) (<= (+ arg4 10) arg2)) (<= (+ arg5 7) arg2)) (<= (+ arg7 5) arg2)) (<= (+ arg8 5) arg2)) (<= (+ arg6 2) arg2)) (= arg1 arg1P)) (= arg3 arg3P)) (= arg4 arg4P)) (= arg5 arg5P)) (= (+ arg6 1) arg6P)) (= arg7 arg7P)) (= arg8 arg8P)))
    (cfg_trans2 pc f3396_0__init__GE pc1 f3396_0__init__GE (and (and (and (and (and (and (and (and (and (and (and (and (> arg5 (- 1)) (> arg3 arg5)) (<= (- arg2P 1) arg2)) (> arg2 9)) (> arg2P 9)) (<= (+ arg4 7) arg2)) (<= (+ arg5 2) arg2)) (<= (+ arg6 5) arg2)) (= arg1 arg1P)) (= arg3 arg3P)) (= arg4 arg4P)) (= (+ arg5 1) arg5P)) (= arg6 arg6P)))
    (cfg_trans2 pc f3437_0__init__GE pc1 f3437_0__init__GE (and (and (and (and (and (and (and (and (and (and (and (and (and (and (and (and (and (and (and (and (and (and (and (and (> arg7 0) (> arg6 0)) (> arg7P arg7)) (< arg7 arg5)) (> arg5 0)) (< arg7 arg4)) (< arg6P arg6)) (> arg11 (- 1))) (> arg3 arg11)) (> arg2 9)) (> arg2P 9)) (<= (+ arg9 10) arg2)) (<= (+ arg10 7) arg2)) (<= (+ arg12 5) arg2)) (<= (+ arg13 5) arg2)) (<= (+ arg11 2) arg2)) (= arg1 arg1P)) (= arg3 arg3P)) (= arg4 arg4P)) (= arg5 arg5P)) (= arg9 arg9P)) (= arg10 arg10P)) (= (+ arg11 1) arg11P)) (= arg12 arg12P)) (= arg13 arg13P)))
    (cfg_trans2 pc f3437_0__init__GE pc1 f3437_0__init__GE (and (and (and (and (and (and (and (and (and (and (and (and (and (and (and (and (and (and (and (and (and (and (< arg8P arg4) (> arg4 (- 1))) (< arg6P arg5)) (> arg5 (- 1))) (> arg3 arg11)) (> arg11 (- 1))) (> arg2 11)) (> arg2P 11)) (<= (+ arg9 10) arg2)) (<= (+ arg10 7) arg2)) (<= (+ arg12 5) arg2)) (<= (+ arg13 5) arg2)) (<= (+ arg11 2) arg2)) (= arg4 arg8)) (= arg1 arg1P)) (= arg3 arg3P)) (= 0 arg5P)) (= 1 arg7P)) (= arg9 arg9P)) (= arg10 arg10P)) (= (+ arg11 1) arg11P)) (= arg12 arg12P)) (= arg13 arg13P)))
    (cfg_trans2 pc f3438_0__init__GE pc1 f3438_0__init__GE (and (and (and (and (and (and (and (and (and (and (and (and (and (and (and (and (and (and (and (and (> arg7 0) (> arg6 0)) (> arg7P arg7)) (< arg7 arg5)) (> arg5 0)) (< arg7 arg4)) (< arg6P arg6)) (> arg10 (- 1))) (> arg3 arg10)) (> arg2 9)) (> arg2P 9)) (<= (+ arg9 7) arg2)) (<= (+ arg10 2) arg2)) (<= (+ arg11 5) arg2)) (= arg1 arg1P)) (= arg3 arg3P)) (= arg4 arg4P)) (= arg5 arg5P)) (= arg9 arg9P)) (= (+ arg10 1) arg10P)) (= arg11 arg11P)))
    (cfg_trans2 pc f3438_0__init__GE pc1 f3438_0__init__GE (and (and (and (and (and (and (and (and (and (and (and (and (and (and (and (and (and (and (< arg8P arg4) (> arg4 (- 1))) (< arg6P arg5)) (> arg5 (- 1))) (> arg3 arg10)) (> arg10 (- 1))) (> arg2 11)) (> arg2P 11)) (<= (+ arg9 7) arg2)) (<= (+ arg10 2) arg2)) (<= (+ arg11 5) arg2)) (= arg4 arg8)) (= arg1 arg1P)) (= arg3 arg3P)) (= 0 arg5P)) (= 1 arg7P)) (= arg9 arg9P)) (= (+ arg10 1) arg10P)) (= arg11 arg11P)))
    (cfg_trans2 pc f3395_0__init__GE pc1 f6761_0_removeRange_GE (and (and (and (and (and (and (and (and (and (and (and (and (and (and (> arg1 (- 1)) (<= arg3 arg6)) (> arg3 (- 1))) (> arg2 9)) (> arg1P 8)) (<= (+ arg4 10) arg2)) (<= (+ arg5 7) arg2)) (<= (+ arg7 5) arg2)) (<= (+ arg8 5) arg2)) (<= (+ arg6 2) arg2)) (= 0 arg2P)) (= (- arg1 arg3) arg3P)) (= arg5 arg4P)) (= arg6 arg5P)) (= arg7 arg6P)))
    (cfg_trans2 pc f3396_0__init__GE pc1 f6761_0_removeRange_GE (and (and (and (and (and (and (and (and (and (and (and (and (> arg1 (- 1)) (<= arg3 arg5)) (> arg3 (- 1))) (> arg2 9)) (> arg1P 8)) (<= (+ arg4 7) arg2)) (<= (+ arg5 2) arg2)) (<= (+ arg6 5) arg2)) (= 0 arg2P)) (= (- arg1 arg3) arg3P)) (= arg4 arg4P)) (= arg5 arg5P)) (= arg6 arg6P)))
    (cfg_trans2 pc f3043_0__init__LE pc1 f6761_0_removeRange_GE (and (and (and (and (and (and (and (and (and (and (and (and (and (and (and (and (and (and (and (and (and (and (and (and (and (and (> arg1 (- 1)) (>= arg4 arg13)) (> arg4 (- 1))) (> arg2 8)) (> arg3 8)) (> arg1P 8)) (<= (+ arg10 9) arg2)) (<= (+ arg11 9) arg2)) (<= (+ arg12 7) arg2)) (<= (+ arg20 5) arg2)) (<= (+ arg13 2) arg2)) (<= (+ arg14 4) arg2)) (<= (+ arg15 4) arg2)) (<= (+ arg16 9) arg3)) (<= (+ arg17 9) arg3)) (<= (+ arg12 7) arg3)) (<= (+ arg20 5) arg3)) (<= (+ arg13 2) arg3)) (<= (+ arg22 4) arg3)) (<= (+ arg21 4) arg3)) (= arg12 arg18)) (= arg13 arg19)) (= 0 arg2P)) (= (- arg1 arg4) arg3P)) (= arg12 arg4P)) (= arg13 arg5P)) (= arg20 arg6P)))
    (cfg_trans2 pc f3437_0__init__GE pc1 f6761_0_removeRange_GE (and (and (and (and (and (and (and (and (and (and (and (and (and (and (and (> arg1 (- 1)) (<= arg3 arg11)) (> arg3 (- 1))) (<= arg1P arg2)) (> arg2 9)) (> arg1P 9)) (<= (+ arg9 10) arg2)) (<= (+ arg10 7) arg2)) (<= (+ arg12 5) arg2)) (<= (+ arg13 5) arg2)) (<= (+ arg11 2) arg2)) (= 0 arg2P)) (= (- arg1 arg3) arg3P)) (= arg10 arg4P)) (= arg11 arg5P)) (= arg12 arg6P)))
    (cfg_trans2 pc f3438_0__init__GE pc1 f6761_0_removeRange_GE (and (and (and (and (and (and (and (and (and (and (and (and (and (> arg1 (- 1)) (<= arg3 arg10)) (> arg3 (- 1))) (<= arg1P arg2)) (> arg2 9)) (> arg1P 9)) (<= (+ arg9 7) arg2)) (<= (+ arg10 2) arg2)) (<= (+ arg11 5) arg2)) (= 0 arg2P)) (= (- arg1 arg3) arg3P)) (= arg9 arg4P)) (= arg10 arg5P)) (= arg11 arg6P)))
    (cfg_trans2 pc f6761_0_removeRange_GE pc1 f6913_0_remove_FieldAccess (and (and (and (and (and (and (and (and (and (and (and (and (and (and (and (and (and (< arg5 arg4) (> arg3 arg2)) (> arg1 7)) (> arg3P 7)) (> arg4P 5)) (> arg5P 2)) (> arg6P 0)) (<= (+ arg7P 8) arg1)) (<= (+ arg4 7) arg1)) (<= (+ arg6 5) arg1)) (<= (+ arg5 2) arg1)) (<= (+ arg11P 4) arg1)) (<= (+ arg10P 4) arg1)) (= arg2 arg1P)) (= arg3 arg2P)) (= (+ arg5 1) arg8P)) (= arg4 arg13P)) (= arg6 arg14P)))
    (cfg_trans2 pc f6761_0_removeRange_GE pc1 f6913_0_remove_FieldAccess (and (and (and (and (and (and (and (and (and (and (and (and (and (and (and (and (and (> arg5 arg4) (> arg3 arg2)) (> arg1 7)) (> arg3P 7)) (> arg4P 5)) (> arg5P 2)) (> arg6P 0)) (<= (+ arg7P 8) arg1)) (<= (+ arg4 7) arg1)) (<= (+ arg6 5) arg1)) (<= (+ arg5 2) arg1)) (<= (+ arg11P 4) arg1)) (<= (+ arg10P 4) arg1)) (= arg2 arg1P)) (= arg3 arg2P)) (= (+ arg5 1) arg8P)) (= arg4 arg13P)) (= arg6 arg14P)))
    (cfg_trans2 pc f6913_0_remove_FieldAccess pc1 f6942_0_remove_FieldAccess (and (and (and (and (and (and (and (and (and (and (and (and (and (and (and (and (and (and (and (and (and (and (and (and (and (and (and (> arg3 7) (> arg4 5)) (> arg5 2)) (> arg6 0)) (> arg3P 7)) (> arg4P 5)) (> arg5P 4)) (> arg6P 0)) (> arg7P 2)) (<= (+ arg7 8) arg3)) (<= (+ arg13 7) arg3)) (<= (+ arg14 5) arg3)) (<= (+ arg8 2) arg3)) (<= (+ arg9 2) arg3)) (<= (+ arg10 4) arg3)) (<= (+ arg11 4) arg3)) (<= (+ arg12 6) arg4)) (<= (+ arg13 5) arg4)) (<= (+ arg14 3) arg4)) (<= (+ arg15 2) arg5)) (<= (+ arg16 2) arg5)) (<= (+ arg18 2) arg6)) (<= (+ arg17 2) arg6)) (= arg1 arg1P)) (= arg2 arg2P)) (= arg8 arg9P)) (= arg13 arg15P)) (= arg14 arg16P)))
    (cfg_trans2 pc f6913_0_remove_FieldAccess pc1 f6944_0_remove_FieldAccess (and (and (and (and (and (and (and (and (and (and (and (and (and (and (and (and (and (and (and (and (and (and (and (and (and (and (and (and (> arg3 7) (> arg4 5)) (> arg5 2)) (> arg6 2)) (> arg3P 7)) (> arg4P 5)) (> arg5P 0)) (> arg6P 2)) (<= (+ arg7 8) arg3)) (<= (+ arg13 7) arg3)) (<= (+ arg14 5) arg3)) (<= (+ arg8 2) arg3)) (<= (+ arg9 2) arg3)) (<= (+ arg10 4) arg3)) (<= (+ arg11 4) arg3)) (<= (+ arg12 6) arg4)) (<= (+ arg13 5) arg4)) (<= (+ arg14 3) arg4)) (<= (+ arg15 2) arg5)) (<= (+ arg16 2) arg5)) (<= (+ arg15 2) arg6)) (<= (+ arg16 2) arg6)) (= arg15 arg17)) (= arg16 arg18)) (= arg1 arg1P)) (= arg2 arg2P)) (= arg8 arg8P)) (= arg13 arg12P)) (= arg14 arg13P)))
    (cfg_trans2 pc f6942_0_remove_FieldAccess pc1 f6761_0_removeRange_GE (and (and (and (and (and (and (and (and (and (and (and (and (and (and (and (and (and (and (and (and (and (and (and (and (and (and (and (and (and (and (and (and (> arg3 7) (> arg16 (- 1))) (> arg4 5)) (> arg5 4)) (> arg6 4)) (> arg7 4)) (> arg1P 7)) (<= (+ arg8 8) arg3)) (<= (+ arg15 7) arg3)) (<= (+ arg16 5) arg3)) (<= (+ arg9 2) arg3)) (<= (+ arg11 6) arg3)) (<= (+ arg12 6) arg3)) (<= (+ arg10 4) arg3)) (<= (+ arg14 6) arg4)) (<= (+ arg15 5) arg4)) (<= (+ arg16 3) arg4)) (<= (+ arg17 4) arg5)) (<= (+ arg18 4) arg5)) (<= (+ arg19 2) arg5)) (<= (+ arg17 4) arg6)) (<= (+ arg18 4) arg6)) (<= (+ arg19 2) arg6)) (<= (+ arg21 4) arg7)) (<= (+ arg23 2) arg7)) (<= (+ arg22 2) arg7)) (= arg10 arg13)) (= arg19 arg20)) (= (+ arg1 1) arg2P)) (= arg2 arg3P)) (= (- arg15 1) arg4P)) (= arg9 arg5P)) (= (+ arg16 1) arg6P)))
    (cfg_trans2 pc f6944_0_remove_FieldAccess pc1 f6761_0_removeRange_GE (and (and (and (and (and (and (and (and (and (and (and (and (and (and (and (and (and (and (and (and (and (and (> arg3 7) (> arg13 (- 1))) (> arg4 5)) (> arg5 2)) (> arg6 2)) (> arg1P 7)) (<= (+ arg7 8) arg3)) (<= (+ arg12 7) arg3)) (<= (+ arg13 5) arg3)) (<= (+ arg8 2) arg3)) (<= (+ arg9 4) arg3)) (<= (+ arg11 6) arg4)) (<= (+ arg12 5) arg4)) (<= (+ arg13 3) arg4)) (<= (+ arg14 2) arg5)) (<= (+ arg14 2) arg6)) (= arg9 arg10)) (= arg14 arg15)) (= (+ arg1 1) arg2P)) (= arg2 arg3P)) (= (- arg12 1) arg4P)) (= arg8 arg5P)) (= (+ arg13 1) arg6P)))
    (cfg_trans2 pc f6944_0_remove_FieldAccess pc1 f6761_0_removeRange_GE (and (and (and (and (and (and (and (and (and (and (and (and (and (and (and (and (and (and (and (and (and (> arg3 7) (> arg13 (- 1))) (> arg4 5)) (> arg5 0)) (> arg6 2)) (> arg1P 7)) (<= (+ arg7 8) arg3)) (<= (+ arg12 7) arg3)) (<= (+ arg13 5) arg3)) (<= (+ arg8 2) arg3)) (<= (+ arg9 4) arg3)) (<= (+ arg10 4) arg3)) (<= (+ arg11 6) arg4)) (<= (+ arg12 5) arg4)) (<= (+ arg13 3) arg4)) (<= (+ arg14 2) arg5)) (<= (+ arg15 2) arg6)) (= (+ arg1 1) arg2P)) (= arg2 arg3P)) (= (- arg12 1) arg4P)) (= (- arg8 1) arg5P)) (= (+ arg13 1) arg6P)))
    (cfg_trans2 pc f6947_0_remove_FieldAccess pc1 f6761_0_removeRange_GE (and (and (and (and (and (and (and (and (and (and (and (and (and (and (and (and (and (and (and (and (and (and (and (and (and (and (and (and (and (and (and (and (and (and (and (and (> arg3 7) (> arg19 (- 1))) (> arg4 5)) (> arg5 4)) (> arg6 2)) (> arg7 2)) (> arg1P 7)) (<= (+ arg8 8) arg3)) (<= (+ arg18 7) arg3)) (<= (+ arg19 5) arg3)) (<= (+ arg9 2) arg3)) (<= (+ arg10 4) arg3)) (<= (+ arg11 4) arg3)) (<= (+ arg12 6) arg3)) (<= (+ arg13 6) arg3)) (<= (+ arg16 4) arg3)) (<= (+ arg17 6) arg4)) (<= (+ arg18 5) arg4)) (<= (+ arg19 3) arg4)) (<= (+ arg20 4) arg5)) (<= (+ arg21 4) arg5)) (<= (+ arg24 2) arg5)) (<= (+ arg25 2) arg6)) (<= (+ arg26 2) arg6)) (<= (+ arg26 2) arg7)) (<= (+ arg25 2) arg7)) (= arg12 arg14)) (= arg13 arg15)) (= arg20 arg22)) (= arg21 arg23)) (= arg25 arg27)) (= arg26 arg28)) (= (+ arg1 1) arg2P)) (= arg2 arg3P)) (= (- arg18 1) arg4P)) (= (- arg9 1) arg5P)) (= (+ arg19 1) arg6P)))
    (cfg_trans2 pc f6947_0_remove_FieldAccess pc1 f6761_0_removeRange_GE (and (and (and (and (and (and (and (and (and (and (and (and (and (and (and (and (and (and (and (and (and (and (and (and (and (and (and (and (and (and (and (and (and (and (> arg3 7) (> arg19 (- 1))) (> arg4 5)) (> arg5 4)) (> arg6 0)) (> arg7 2)) (> arg1P 7)) (<= (+ arg8 8) arg3)) (<= (+ arg18 7) arg3)) (<= (+ arg19 5) arg3)) (<= (+ arg9 2) arg3)) (<= (+ arg10 4) arg3)) (<= (+ arg11 4) arg3)) (<= (+ arg12 6) arg3)) (<= (+ arg13 6) arg3)) (<= (+ arg14 6) arg3)) (<= (+ arg15 6) arg3)) (<= (+ arg16 4) arg3)) (<= (+ arg17 6) arg4)) (<= (+ arg18 5) arg4)) (<= (+ arg19 3) arg4)) (<= (+ arg20 4) arg5)) (<= (+ arg21 4) arg5)) (<= (+ arg22 4) arg5)) (<= (+ arg23 4) arg5)) (<= (+ arg24 2) arg5)) (<= (+ arg25 2) arg6)) (<= (+ arg26 2) arg6)) (<= (+ arg28 2) arg7)) (<= (+ arg27 2) arg7)) (= (+ arg1 1) arg2P)) (= arg2 arg3P)) (= (- arg18 1) arg4P)) (= (- arg9 1) arg5P)) (= (+ arg19 1) arg6P)))
    (cfg_trans2 pc f1_0_main_Load pc1 f477_0_createList_Load (and (and (and (and (and (and (and (> arg1P (- 1)) (> arg2 0)) (<= (- arg2P 7) arg1)) (> arg1 0)) (> arg2P 7)) (= 1 arg5P)) (= 0 arg6P)) (= 0 arg7P)))
    (cfg_trans2 pc f850_0_createList_Load pc1 f2250_0_createList_LE (and (and (and (and (and (and (and (and (and (and (and (and (and (and (and (and (and (and (and (and (and (and (and (and (and (> arg2 11) (> arg1P 11)) (<= (+ arg20 9) arg2)) (<= (+ arg21 9) arg2)) (<= (+ arg23 3) arg2)) (<= (+ arg22 5) arg2)) (= arg1 arg2P)) (= arg13 arg3P)) (= arg11 arg4P)) (= arg7 arg5P)) (= arg12 arg6P)) (= arg6 arg7P)) (= arg3 arg9P)) (= arg14 arg10P)) (= arg5 arg11P)) (= 0 arg12P)) (= arg4 arg13P)) (= arg8 arg14P)) (= arg9 arg15P)) (= arg10 arg16P)) (= arg15 arg17P)) (= arg16 arg18P)) (= arg17 arg19P)) (= arg19 arg20P)) (= arg22 arg24P)) (= arg23 arg25P)))
    (cfg_trans2 pc f2250_0_createList_LE pc1 f2250_0_createList_LE (exists ((x680 Int) (x721 Int)) (and (and (and (and (and (and (and (and (and (and (and (and (and (and (and (and (and (and (and (and (and (and (and (and (and (and (and (and (and (and (and (and (and (and (and (and (and (and (> arg2 0) (> x680 (- 1))) (> arg6 0)) (> arg3 0)) (> arg20 (- 1))) (< arg20 x680)) (> arg10 0)) (> arg4 0)) (> arg13 0)) (> arg11 0)) (> arg12 0)) (> x721 (- 1))) (> arg9 0)) (> arg5 0)) (> arg18 0)) (> arg14 0)) (> arg19 0)) (> arg17 0)) (> arg15 0)) (> arg16 0)) (> arg25 (- 1))) (> arg24 (- 1))) (> arg1 9)) (> arg1P 9)) (<= (+ arg21 9) arg1)) (<= (+ arg22 9) arg1)) (<= (+ arg23 9) arg1)) (<= (+ arg25 3) arg1)) (<= (+ arg24 5) arg1)) (= (- arg2 1) arg2P)) (= arg3 arg3P)) (= arg6 arg6P)) (= arg7 arg7P)) (= arg8 arg8P)) (= arg10 arg10P)) (= arg12 arg12P)) (= (+ arg20 1) arg20P)) (= (+ arg24 1) arg24P)) (= (+ arg25 1) arg25P))))
    (cfg_trans2 pc f2250_0_createList_LE pc1 f2250_0_createList_LE (exists ((x722 Int) (x757 Int)) (and (and (and (and (and (and (and (and (and (and (and (and (and (and (and (and (and (and (and (and (and (and (and (and (and (and (and (and (and (and (and (and (and (and (and (and (and (> arg2 0) (> x722 (- 1))) (> arg6 0)) (> arg3 0)) (> arg20 (- 1))) (< arg20 x722)) (> arg10 0)) (> arg12 0)) (> x757 (- 1))) (> arg18 0)) (> arg19 0)) (> arg17 0)) (> arg8 0)) (> arg25 (- 1))) (> arg24 (- 1))) (> arg1 11)) (> arg1P 13)) (<= (+ arg21 9) arg1)) (<= (+ arg22 9) arg1)) (<= (+ arg23 9) arg1)) (<= (+ arg25 3) arg1)) (<= (+ arg24 5) arg1)) (= arg8 arg9)) (= arg10 arg11)) (= arg12 arg13)) (= arg7 arg16)) (= (- arg2 1) arg2P)) (= 0 arg3P)) (= 1 arg4P)) (= 1 arg5P)) (= arg8 arg8P)) (= arg10 arg10P)) (= arg12 arg12P)) (= 0 arg13P)) (= 2 arg14P)) (= (+ arg20 1) arg20P)) (= (+ arg24 1) arg24P)) (= (+ arg25 1) arg25P))))
    (cfg_trans2 pc __init pc1 f1_0_main_Load true)
  )
)
